NAME : census.-59355736.tour
COMMENT : Length = -59355736
COMMENT : Found by LKH [Keld Helsgaun] Tue May 25 08:54:37 2021
TYPE : TOUR
DIMENSION : 68
TOUR_SECTION
1
39
50
3
43
2
29
40
41
56
12
11
59
57
28
65
61
51
55
45
38
44
68
48
19
5
10
16
20
4
24
13
21
23
22
18
30
58
26
46
36
53
60
7
15
31
17
42
14
62
25
35
6
49
63
67
47
9
32
8
52
34
37
64
27
33
66
54
-1
EOF
